DATASET = "thpack1";
INSTANCE = "045";

WIDTH = 233;
HEIGHT = 220;
LENGTH = 587;

NO_OF_SHAPES = 3;
size = [|
  63,55,31 |
  120,43,23 |
  97,72,57 |
|];

verticality = [|
  0,1,1 |
  0,1,1 |
  1,1,1 |
|];

box_count = [
  51,
  39,
  50,
];
